/* Objective function */
max: +1000 C1 +1000 C2 +1000 C3 +1000 C4 +1000 C5 +1000 C6 +1000 C7 +1000 C8 +1000 C9 +1000 C10 +400 C11 +400 C12
 +400 C13 +400 C14 +400 C15 +400 C16 +400 C17 +400 C18 +400 C19 +400 C20 +100 C21 +100 C22 +100 C23 +100 C24
 +100 C25 +100 C26 +100 C27 +100 C28 +100 C29 +100 C30;

/* Constraints */
+C1 +C11 +C21 <= 100;
+C2 +C12 +C22 <= 95;
+C3 +C13 +C23 <= 98;
+C4 +C14 +C24 <= 100;
+C5 +C15 +C25 <= 99;
+C6 +C16 +C26 <= 100;
+C7 +C17 +C27 <= 100;
+C8 +C18 +C28 <= 95;
+C9 +C19 +C29 <= 98;
+C10 +C20 +C30 <= 100;
R11: +C1 <= 10;
R12: +C2 <= 8;
R13: +C3 <= 5;
R14: +C4 <= 5;
R15: +C5 <= 4;
R16: +C6 <= 10;
R17: +C7 <= 11;
R18: +C8 <= 11;
R19: +C9 <= 6;
R20: +C10 <= 6;
R21: +C11 <= 50;
R22: +C12 <= 40;
R23: +C13 <= 25;
R24: +C14 <= 25;
R25: +C15 <= 20;
R26: +C16 <= 50;
R27: +C17 <= 55;
R28: +C18 <= 55;
R29: +C19 <= 30;
R30: +C20 <= 30;
R31: +C21 <= 150;
R32: +C22 <= 120;
R33: +C23 <= 75;
R34: +C24 <= 75;
R35: +C25 <= 60;
R36: +C26 <= 150;
R37: +C27 <= 157;
R38: +C28 <= 165;
R39: +C29 <= 90;
R40: +C30 <= 85;
